c This is a random SAT instance with 10 variables and 20 clauses
p cnf 10 20
-1 1 2 10 6 5 -4 3 -8 0
8 -7 -1 -3 5 9 4 -4 -10 0
-10 -2 0
-2 9 2 -9 -10 8 -1 -6 5 -7 0
-6 0
10 -8 2 1 5 -3 -2 -1 0
3 6 0
7 4 0
10 -4 -5 0
5 6 0
1 7 -1 5 -8 9 -7 -2 10 0
4 10 -5 7 -9 -8 0
-1 -7 -5 8 10 6 7 -6 -2 0
-9 0
-9 8 -7 -5 9 -8 -4 6 -3 0
-10 -3 5 4 9 -8 3 6 -2 7 0
3 10 -5 -8 -9 9 1 8 -6 -3 0
-10 7 -9 -8 10 4 2 1 9 -5 0
-6 1 6 10 0
-8 2 7 -3 4 10 3 0